100 8
525 491
840 179
627 719
694 668
791 145
917 99
291 479
260 463
256 334
729 915
270 534
101 435
692 836
801 166
612 713
233 204
224 397
343 398
753 516
808 881
334 57
587 253
227 419
305 463
799 187
633 79
522 358
275 372
260 150
694 97
238 389
210 663
844 628
194 238
853 572
170 308
511 461
691 906
676 392
537 304
350 173
352 223
207 645
368 96
230 603
551 343
175 297
563 463
311 147
159 307
694 640
834 779
228 489
883 148
260 448
725 219
664 738
415 184
226 332
670 900
554 314
370 62
658 136
880 684
485 170
792 718
730 692
874 731
180 624
714 827
690 219
654 480
782 125
329 317
434 104
145 379
706 778
694 673
697 921
920 62
263 334
144 598
670 899
230 528
231 546
848 654
704 80
296 399
684 494
321 197
278 494
516 725
286 463
763 214
912 763
280 590
788 685
470 241
171 337
501 52
